(set-logic HORN)
(declare-fun k_27 (Int Int Int Int (Array Int Int) (Array Int Int)) Bool)
(declare-fun k_22 (Int Int Int Int Int (Array Int Int) (Array Int Int)) Bool)
(declare-fun k_24 (Int Int Int Int Int (Array Int Int) (Array Int Int)) Bool)
(declare-fun k_30
             (Int Int Int Int Int Int (Array Int Int) (Array Int Int))
             Bool)
(declare-fun k_37 (Int Int Int Int Int (Array Int Int) (Array Int Int)) Bool)
(declare-fun k_34
             (Int Int Int Int Int Int (Array Int Int) (Array Int Int))
             Bool)
(declare-fun k_20 (Int Int Int Int Int (Array Int Int) (Array Int Int)) Bool)
(declare-fun k_32
             (Int Int Int Int Int Int (Array Int Int) (Array Int Int))
             Bool)
(assert (forall ((VV_F1 Int)
         (GT_6W Int)
         (LT_6S Int)
         (lq_anf__db0 Int)
         (EQ_6U Int)
         (len (Array Int Int))
         (cmp (Array Int Int)))
  (=> (and (= (select cmp EQ_6U) EQ_6U)
           (= (select cmp GT_6W) GT_6W)
           (= (select cmp LT_6S) LT_6S)
           (>= (select len lq_anf__db0) 0)
           (k_37 EQ_6U GT_6W LT_6S VV_F1 lq_anf__db0 len cmp)
           true)
      (k_27 EQ_6U GT_6W LT_6S VV_F1 len cmp))))
(assert (forall ((EQ_6U Int)
         (GT_6W Int)
         (VV_39 Int)
         (VV_F2 Int)
         (LT_6S Int)
         (lq_anf__db0 Int)
         (len (Array Int Int))
         (cmp (Array Int Int)))
  (=> (and (k_37 EQ_6U GT_6W LT_6S VV_39 lq_anf__db0 len cmp)
           (= (select cmp EQ_6U) EQ_6U)
           (= (select cmp GT_6W) GT_6W)
           (= (select cmp LT_6S) LT_6S)
           (>= (select len lq_anf__db0) 0)
           (k_30 EQ_6U GT_6W LT_6S VV_F2 VV_39 lq_anf__db0 len cmp)
           true)
      (k_20 EQ_6U GT_6W LT_6S VV_F2 VV_39 len cmp))))
(assert (forall ((VV_F3 Int)
         (EQ_6U Int)
         (GT_6W Int)
         (VV_39 Int)
         (LT_6S Int)
         (lq_anf__db0 Int)
         (len (Array Int Int))
         (cmp (Array Int Int)))
  (=> (and (k_37 EQ_6U GT_6W LT_6S VV_39 lq_anf__db0 len cmp)
           (= (select cmp EQ_6U) EQ_6U)
           (= (select cmp GT_6W) GT_6W)
           (= (select cmp LT_6S) LT_6S)
           (>= (select len lq_anf__db0) 0)
           (k_32 EQ_6U GT_6W LT_6S VV_F3 VV_39 lq_anf__db0 len cmp)
           true)
      (k_22 EQ_6U GT_6W LT_6S VV_F3 VV_39 len cmp))))
(assert (forall ((EQ_6U Int)
         (GT_6W Int)
         (VV_F4 Int)
         (LT_6S Int)
         (lq_anf__db0 Int)
         (lq_tmp_x25 Int)
         (len (Array Int Int))
         (cmp (Array Int Int)))
  (=> (and (= (select cmp EQ_6U) EQ_6U)
           (= (select cmp GT_6W) GT_6W)
           (= (select cmp LT_6S) LT_6S)
           (>= (select len lq_anf__db0) 0)
           (k_34 EQ_6U GT_6W LT_6S VV_F4 lq_anf__db0 lq_tmp_x25 len cmp)
           true)
      (k_24 EQ_6U GT_6W LT_6S VV_F4 lq_tmp_x25 len cmp))))

(check-sat)
